
Log started (V12.7.1.0) Tue Mar  6 10:29:48 2018


Problem 'ssr_lno.lp' read.
Read time = 0.05 sec. (1.05 ticks)
CPXPARAM_Read_APIEncoding                        "UTF-8"
Tried aggregator 2 times.
MIP Presolve eliminated 8254 rows and 1074 columns.
MIP Presolve modified 685 coefficients.
Aggregator did 325 substitutions.
Reduced MIP has 3697 rows, 1664 columns, and 12403 nonzeros.
Reduced MIP has 1663 binaries, 1 generals, 0 SOSs, and 0 indicators.
Presolve time = 0.04 sec. (20.03 ticks)
Found incumbent of value 23.006100 after 0.11 sec. (37.48 ticks)
Probing time = 0.03 sec. (3.41 ticks)
Cover probing fixed 0 vars, tightened 32 bounds.
Tried aggregator 2 times.
MIP Presolve eliminated 1 rows and 0 columns.
MIP Presolve modified 37 coefficients.
Aggregator did 71 substitutions.
Reduced MIP has 3625 rows, 1593 columns, and 12413 nonzeros.
Reduced MIP has 1592 binaries, 1 generals, 0 SOSs, and 0 indicators.
Presolve time = 0.01 sec. (12.76 ticks)
Probing time = 0.03 sec. (3.45 ticks)
Cover probing fixed 0 vars, tightened 32 bounds.
Clique table members: 5983.
Tightened 26 constraints.
MIP emphasis: balance optimality and feasibility.
MIP search method: dynamic search.
Parallel mode: deterministic, using up to 4 threads.
Root relaxation solution time = 0.06 sec. (21.87 ticks)

        Nodes                                         Cuts/
   Node  Left     Objective  IInf  Best Integer    Best Bound    ItCnt     Gap

*     0+    0                           23.0061        0.0000           100.00%
      0     0        3.0005   364       23.0061        3.0005      658   86.96%
*     0+    0                           10.0000        3.0005            70.00%
      0     0        3.0706   449       10.0000     Cuts: 147     1129   69.29%
      0     0        4.3238   375       10.0000      Cuts: 62     1683   56.76%
      0     0        6.2505   467       10.0000     Cuts: 166     2768   10.00%
      0     0        7.5004   347       10.0000     Cuts: 101     3032   10.00%
      0     0        8.0004   347       10.0000      Cuts: 78     3141   10.00%

Clique cuts applied:  1
Implied bound cuts applied:  2
Mixed integer rounding cuts applied:  3
Zero-half cuts applied:  99
Lift and project cuts applied:  1
Gomory fractional cuts applied:  1

Root node processing (before b&c):
  Real time             =    1.07 sec. (495.13 ticks)
Parallel b&c, 4 threads:
  Real time             =    0.00 sec. (0.00 ticks)
  Sync time (average)   =    0.00 sec.
  Wait time (average)   =    0.00 sec.
                          ------------
Total (root+branch&cut) =    1.07 sec. (495.13 ticks)

Solution pool: 3 solutions saved.

MIP - Integer optimal, tolerance (0.0001/1e-06):  Objective =  1.0000000000e+01
Current MIP best bound =  9.9999692460e+00 (gap = 3.0754e-05, 0.00%)
Solution time =    1.08 sec.  Iterations = 3227  Nodes = 0 (1)
Deterministic time = 495.14 ticks  (459.55 ticks/sec)


Incumbent solution
Variable Name           Solution Value
U_5                          10.000000
x_0_0_0                       1.000000
x_1_0_0                       1.000000
x_2_6_0                       1.000000
x_3_4_0                       1.000000
x_4_8_0                       1.000000
x_5_8_0                       1.000000
x_6_5_0                       1.000000
x_7_4_0                       1.000000
x_8_2_0                       1.000000
x_9_5_0                       1.000000
k_0_0                         1.000000
k_2_0                         1.000000
k_4_0                         1.000000
k_6_0                         1.000000
k_8_0                         1.000000
x_0_0_1                       1.000000
x_0_0_2                       1.000000
x_0_0_3                       1.000000
x_0_0_4                       1.000000
x_0_0_5                       1.000000
x_1_0_1                       1.000000
x_1_0_2                       1.000000
x_1_0_3                       1.000000
x_1_0_4                       1.000000
x_1_0_5                       1.000000
x_2_6_1                       1.000000
x_2_6_2                       1.000000
x_2_6_3                       1.000000
x_2_6_4                       1.000000
x_2_6_5                       1.000000
x_3_4_1                       1.000000
x_3_4_2                       1.000000
x_3_4_3                       1.000000
x_3_4_4                       1.000000
x_3_4_5                       1.000000
x_4_8_1                       1.000000
x_4_8_2                       1.000000
x_4_8_3                       1.000000
x_4_8_4                       1.000000
x_4_8_5                       1.000000
x_5_8_1                       1.000000
x_5_8_2                       1.000000
x_5_8_3                       1.000000
x_5_8_4                       1.000000
x_5_8_5                       1.000000
x_6_5_1                       1.000000
x_6_5_2                       1.000000
x_6_5_3                       1.000000
x_6_5_4                       1.000000
x_6_5_5                       1.000000
x_7_4_1                       1.000000
x_7_4_2                       1.000000
x_7_4_3                       1.000000
x_7_4_4                       1.000000
x_7_4_5                       1.000000
x_8_2_1                       1.000000
x_8_2_2                       1.000000
x_8_2_3                       1.000000
x_8_2_4                       1.000000
x_8_2_5                       1.000000
x_9_5_1                       1.000000
x_9_5_2                       1.000000
x_9_5_3                       1.000000
x_9_5_4                       1.000000
x_9_5_5                       1.000000
y_0_0_0                       1.000000
y_0_1_0                       1.000000
y_0_2_0                       1.000000
y_0_3_0                       1.000000
y_0_0_1                       1.000000
y_0_1_1                       1.000000
y_0_2_1                       1.000000
y_0_3_1                       1.000000
y_0_0_2                       1.000000
y_0_1_2                       1.000000
y_0_2_2                       1.000000
y_0_3_2                       1.000000
y_0_0_3                       1.000000
y_0_1_3                       1.000000
y_0_2_3                       1.000000
y_0_3_3                       1.000000
y_0_0_4                       1.000000
y_0_1_4                       1.000000
y_0_2_4                       1.000000
y_0_3_4                       1.000000
y_0_0_5                       1.000000
y_0_1_5                       1.000000
y_0_2_5                       1.000000
y_0_3_5                       1.000000
y_1_0_0                       1.000000
y_1_1_0                       1.000000
y_1_2_0                       1.000000
y_1_3_0                       1.000000
y_1_0_1                       1.000000
y_1_1_1                       1.000000
y_1_2_1                       1.000000
y_1_3_1                       1.000000
y_1_0_2                       1.000000
y_1_1_2                       1.000000
y_1_2_2                       1.000000
y_1_3_2                       1.000000
y_1_0_3                       1.000000
y_1_1_3                       1.000000
y_1_2_3                       1.000000
y_1_3_3                       1.000000
y_1_0_4                       1.000000
y_1_1_4                       1.000000
y_1_2_4                       1.000000
y_1_3_4                       1.000000
y_1_0_5                       1.000000
y_1_1_5                       1.000000
y_1_2_5                       1.000000
y_1_3_5                       1.000000
y_2_6_0                       1.000000
y_2_6_1                       1.000000
y_2_6_2                       1.000000
y_2_6_3                       1.000000
y_2_6_4                       1.000000
y_2_6_5                       1.000000
y_3_4_0                       1.000000
y_3_4_1                       1.000000
y_3_4_2                       1.000000
y_3_4_3                       1.000000
y_3_4_4                       1.000000
y_3_4_5                       1.000000
y_4_8_0                       1.000000
y_4_9_0                       1.000000
y_4_10_0                      1.000000
y_4_8_1                       1.000000
y_4_9_1                       1.000000
y_4_10_1                      1.000000
y_4_8_2                       1.000000
y_4_9_2                       1.000000
y_4_10_2                      1.000000
y_4_8_3                       1.000000
y_4_9_3                       1.000000
y_4_10_3                      1.000000
y_4_8_4                       1.000000
y_4_9_4                       1.000000
y_4_10_4                      1.000000
y_4_8_5                       1.000000
y_4_9_5                       1.000000
y_4_10_5                      1.000000
y_5_8_0                       1.000000
y_5_9_0                       1.000000
y_5_10_0                      1.000000
y_5_8_1                       1.000000
y_5_9_1                       1.000000
y_5_10_1                      1.000000
y_5_8_2                       1.000000
y_5_9_2                       1.000000
y_5_10_2                      1.000000
y_5_8_3                       1.000000
y_5_9_3                       1.000000
y_5_10_3                      1.000000
y_5_8_4                       1.000000
y_5_9_4                       1.000000
y_5_10_4                      1.000000
y_5_8_5                       1.000000
y_5_9_5                       1.000000
y_5_10_5                      1.000000
y_6_5_0                       1.000000
y_6_6_0                       1.000000
y_6_7_0                       1.000000
y_6_5_1                       1.000000
y_6_6_1                       1.000000
y_6_7_1                       1.000000
y_6_5_2                       1.000000
y_6_6_2                       1.000000
y_6_7_2                       1.000000
y_6_5_3                       1.000000
y_6_6_3                       1.000000
y_6_7_3                       1.000000
y_6_5_4                       1.000000
y_6_6_4                       1.000000
y_6_7_4                       1.000000
y_6_5_5                       1.000000
y_6_6_5                       1.000000
y_6_7_5                       1.000000
y_7_4_0                       1.000000
y_7_5_0                       1.000000
y_7_6_0                       1.000000
y_7_4_1                       1.000000
y_7_5_1                       1.000000
y_7_6_1                       1.000000
y_7_4_2                       1.000000
y_7_5_2                       1.000000
y_7_6_2                       1.000000
y_7_4_3                       1.000000
y_7_5_3                       1.000000
y_7_6_3                       1.000000
y_7_4_4                       1.000000
y_7_5_4                       1.000000
y_7_6_4                       1.000000
y_7_4_5                       1.000000
y_7_5_5                       1.000000
y_7_6_5                       1.000000
y_8_0_0                       1.000000
y_8_2_0                       1.000000
y_8_3_0                       1.000000
y_8_4_0                       1.000000
y_8_5_0                       1.000000
y_8_0_1                       1.000000
y_8_2_1                       1.000000
y_8_3_1                       1.000000
y_8_4_1                       1.000000
y_8_5_1                       1.000000
y_8_0_2                       1.000000
y_8_1_2                       1.000000
y_8_2_2                       1.000000
y_8_3_2                       1.000000
y_8_4_2                       1.000000
y_8_5_2                       1.000000
y_8_6_2                       1.000000
y_8_7_2                       1.000000
y_8_8_2                       1.000000
y_8_9_2                       1.000000
y_8_10_2                      1.000000
y_8_11_2                      1.000000
y_8_12_2                      1.000000
y_8_13_2                      1.000000
y_8_14_2                      1.000000
y_8_15_2                      1.000000
y_8_16_2                      1.000000
y_8_17_2                      1.000000
y_8_18_2                      1.000000
y_8_19_2                      1.000000
y_8_20_2                      1.000000
y_8_21_2                      1.000000
y_8_22_2                      1.000000
y_8_0_3                       1.000000
y_8_1_3                       1.000000
y_8_2_3                       1.000000
y_8_3_3                       1.000000
y_8_4_3                       1.000000
y_8_5_3                       1.000000
y_8_6_3                       1.000000
y_8_7_3                       1.000000
y_8_8_3                       1.000000
y_8_9_3                       1.000000
y_8_10_3                      1.000000
y_8_11_3                      1.000000
y_8_12_3                      1.000000
y_8_13_3                      1.000000
y_8_14_3                      1.000000
y_8_15_3                      1.000000
y_8_16_3                      1.000000
y_8_17_3                      1.000000
y_8_18_3                      1.000000
y_8_19_3                      1.000000
y_8_20_3                      1.000000
y_8_21_3                      1.000000
y_8_22_3                      1.000000
y_8_0_4                       1.000000
y_8_1_4                       1.000000
y_8_2_4                       1.000000
y_8_3_4                       1.000000
y_8_4_4                       1.000000
y_8_5_4                       1.000000
y_8_6_4                       1.000000
y_8_7_4                       1.000000
y_8_8_4                       1.000000
y_8_9_4                       1.000000
y_8_10_4                      1.000000
y_8_11_4                      1.000000
y_8_12_4                      1.000000
y_8_13_4                      1.000000
y_8_14_4                      1.000000
y_8_15_4                      1.000000
y_8_16_4                      1.000000
y_8_17_4                      1.000000
y_8_18_4                      1.000000
y_8_19_4                      1.000000
y_8_20_4                      1.000000
y_8_21_4                      1.000000
y_8_22_4                      1.000000
y_8_0_5                       1.000000
y_8_2_5                       1.000000
y_8_3_5                       1.000000
y_8_4_5                       1.000000
y_8_5_5                       1.000000
y_9_0_0                       1.000000
y_9_5_0                       1.000000
y_9_6_0                       1.000000
y_9_7_0                       1.000000
y_9_8_0                       1.000000
y_9_5_1                       1.000000
y_9_6_1                       1.000000
y_9_7_1                       1.000000
y_9_8_1                       1.000000
y_9_9_1                       1.000000
y_9_10_1                      1.000000
y_9_1_2                       1.000000
y_9_2_2                       1.000000
y_9_3_2                       1.000000
y_9_5_2                       1.000000
y_9_6_2                       1.000000
y_9_7_2                       1.000000
y_9_8_2                       1.000000
y_9_9_2                       1.000000
y_9_10_2                      1.000000
y_9_5_3                       1.000000
y_9_6_3                       1.000000
y_9_7_3                       1.000000
y_9_8_3                       1.000000
y_9_5_4                       1.000000
y_9_6_4                       1.000000
y_9_7_4                       1.000000
y_9_8_4                       1.000000
y_9_5_5                       1.000000
y_9_6_5                       1.000000
y_9_7_5                       1.000000
y_9_8_5                       1.000000
U_0                          10.000000
U_1                          10.000000
U_2                          22.000000
U_3                          22.000000
U_4                          22.000000
k_0_1                         1.000000
k_0_2                         1.000000
k_0_3                         1.000000
k_0_4                         1.000000
k_0_5                         1.000000
k_2_1                         1.000000
k_2_2                         1.000000
k_2_3                         1.000000
k_2_4                         1.000000
k_2_5                         1.000000
k_4_1                         1.000000
k_4_2                         1.000000
k_4_3                         1.000000
k_4_4                         1.000000
k_4_5                         1.000000
k_6_1                         1.000000
k_6_2                         1.000000
k_6_3                         1.000000
k_6_4                         1.000000
k_6_5                         1.000000
k_8_1                         1.000000
k_8_2                         1.000000
k_8_3                         1.000000
k_8_4                         1.000000
k_8_5                         1.000000
All other variables in the range 1-3066 are 0.
